job_count = 20 ;
duration = [|8, 20, 16, 4|20, 7, 8, 2|15, 4, 9, 8|24, 14, 10, 2|23, 3, 12, 9|19, 9, 6, 13|15, 19, 8, 5|5, 20, 7, 5|5, 21, 16, 14|9, 12, 14, 7|13, 14, 4, 8|5, 4, 10, 5|8, 15, 17, 10|10, 5, 15, 12|2, 12, 12, 10|22, 7, 6, 14|3, 2, 12, 5|22, 2, 10, 10|10, 9, 13, 11|23, 5, 14, 3|] ;
machine_count = 4 ;
cost = [|28, 29, 22, 53|24, 24, 25, 52|22, 25, 32, 27|17, 32, 24, 42|20, 21, 24, 37|28, 35, 34, 33|31, 19, 28, 50|24, 18, 34, 48|20, 28, 30, 38|18, 21, 22, 31|31, 18, 39, 51|16, 32, 30, 28|25, 21, 39, 40|21, 20, 23, 28|30, 19, 34, 42|21, 28, 34, 44|21, 22, 36, 28|29, 20, 23, 48|26, 23, 24, 47|28, 23, 43, 46|] ;
deadline = [33, 33, 33, 33, 33, 33, 33, 33, 33, 33, 33, 33, 33, 33, 33, 33, 33, 33, 33, 33] ;
release = [0, 0, 0, 0, 0, 0, 0, 0, 0, 0, 0, 0, 0, 0, 0, 0, 0, 0, 0, 0] ;
resource = [|3, 3, 3, 3|7, 7, 7, 7|8, 8, 8, 8|3, 3, 3, 3|6, 6, 6, 6|6, 6, 6, 6|6, 6, 6, 6|9, 9, 9, 9|3, 3, 3, 3|3, 3, 3, 3|3, 3, 3, 3|8, 8, 8, 8|4, 4, 4, 4|9, 9, 9, 9|3, 3, 3, 3|3, 3, 3, 3|4, 4, 4, 4|9, 9, 9, 9|1, 1, 1, 1|3, 3, 3, 3|] ;
capacities = [10, 10, 10, 10] ;
